p cnf 11 55 
c Factors encoded in variables 1-5 and 6-10
c Target number: 841
c Factors: 29 x 29
-3 -8 7 -12 -12 0
12 -12 0
7 -12 12 12 0
8 7 12 -12 0
-3 -8 7 12 -12 0
-12 -12 0
9 0
8 7 -12 0
3 8 -7 -12 -12 0
3 2 8 7 0
-3 2 8 12 0
3 -8 7 12 -12 0
2 -7 12 0
-3 8 -7 -12 0
-8 -12 12 -12 -12 0
-2 7 -12 12 0
2 7 -12 0
-3 8 -7 12 -12 0
-3 -2 0
2 12 12 12 -12 0
5 0
-3 -8 7 -12 12 0
2 12 -12 12 0
2 -12 -12 0
7 -12 0
3 2 0
-2 8 12 12 -12 12 0
-8 -12 12 12 0
2 -7 -12 12 0
-3 -7 12 -12 12 -12 0
-2 7 12 0
3 -12 0
-8 -7 -12 12 0
10 0
-3 7 -12 -12 0
3 8 -7 12 -12 0
-12 12 0
3 8 7 -12 -12 0
-7 12 -12 12 -12 0
3 -8 7 12 12 0
2 8 12 12 0
-8 12 -12 0
1 0
-7 -12 -12 12 0
3 2 8 -7 12 -12 12 0
4 0
-3 -8 -12 0
-3 8 12 0
3 12 12 0
-2 -7 -12 0
6 0
3 8 -12 0
-3 -2 -7 -12 -12 0
-8 -12 12 0
3 -8 12 0
